45716
1 0 1 1 0 0 0 0 0 0 1 0 0 0 0 0 0 0 0 1 0 0 1 0 0 1 0 0 0 1 
22 19 2 22 2 25 2 22 22 22 19 3 10 3 3 22 22 10 22 0 29 22 2 0 10 22 22 19 29 2 19 19 29 22 22 29 10 29 0 2 22 3 19 29 29 19 3 2 19 10 22 22 0 2 3 19 25 29 22 25 29 0 25 3 10 25 0 19 19 25 25 19 19 3 10 10 10 0 10 22 10 0 29 25 29 10 3 0 22 25 29 19 25 25 0 3 22 19 0 3 19 2 25 22 19 0 29 2 22 3 19 29 2 29 25 3 29 3 22 29 10 22 29 19 29 22 2 25 19 0 3 2 25 10 10 29 3 3 22 10 25 22 29 25 25 3 2 2 29 25 0 0 22 0 3 25 2 22 3 3 3 22 10 0 3 2 2 19 22 3 2 3 3 10 29 0 0 10 29 10 2 2 0 3 25 3 29 10 0 2 2 2 19 29 25 25 22 3 10 19 